NAME : lrc206.1159033.tour
COMMENT : Cost = 0_1159033
COMMENT : Found by LKH [Keld Helsgaun] Fri Sep 15 17:42:02 2017
TYPE : TOUR
DIMENSION : 105
TOUR_SECTION
1
66
84
93
96
63
32
30
28
29
31
34
64
86
52
77
19
22
24
20
50
23
58
100
88
98
10
11
14
18
61
56
101
71
69
105
6
46
3
72
73
43
45
103
40
37
41
39
42
62
89
54
79
74
80
8
7
9
47
5
4
2
44
36
38
55
97
94
92
81
104
70
99
83
13
15
48
17
16
12
60
76
87
53
65
85
68
95
82
91
67
57
51
35
33
102
27
90
21
25
49
26
78
59
75
-1
EOF
